NAME : rcdp2504
TYPE : VRPSPDTW
DIMENSION : 26
VEHICLES : 4
CAPACITY : 200
EDGE_WEIGHT_TYPE : EXACT_2D
NODE_COORD_SECTION
1 40 50
2 20 80
3 42 15
4 40 15
5 90 35
6 88 35
7 85 25
8 65 85
9 62 80
10 18 80
11 20 50
12 15 60
13 65 35
14 41 37
15 35 69
16 60 12
17 23 3
18 8 56
19 47 47
20 49 58
21 12 24
22 24 58
23 53 43
24 61 52
25 56 37
26 26 35
PICKUP_AND_DELIVERY_SECTION
1 0 0 240 0 0 0
2 0 141 171 10 20 40
3 0 0 194 10 10 10
4 0 0 195 10 30 40
5 0 0 177 10 20 10
6 0 0 179 10 30 20
7 0 0 178 10 10 10
8 0 0 186 10 30 40
9 0 75 105 10 40 30
10 0 0 192 10 10 10
11 0 91 121 10 5 5
12 0 0 203 10 5 17
13 0 52 82 10 21 3
14 0 0 216 10 18 16
15 0 0 210 10 4 23
16 0 75 105 10 11 31
17 0 150 180 10 5 7
18 0 0 197 10 5 27
19 0 0 222 10 10 13
20 0 0 217 10 16 10
21 0 90 120 10 6 13
22 0 0 212 10 32 19
23 0 14 44 10 12 14
24 0 0 208 10 7 3
25 0 0 209 10 3 6
26 0 77 107 10 5 15
DEPOT_SECTION
1 
-1
